proyfinal/src/viki/013/experimentInOfficeAgust.take6.output/8a358382-7bb5-4d74-aafb-f71980b3eb47.als.dat
{'cnf.clauses': '161767',
 'cnf.totvars': '87638',
 'conflict literals': '1486381',
 'conflicts': '18832',
 'decisions': '62359',
 'memused.mb': '35.97',
 'outcome': 'UNSAT',
 'propagations': '28782646',
 'restarts': '63',
 'solver.msecs': 3060,
 'stats_inv': {'cnf.clauses': '118081',
               'cnf.totvars': '69608',
               'conflict literals': '2',
               'conflicts': '1',
               'decisions': '35139',
               'memused.mb': '17.74',
               'outcome': 'SAT',
               'propagations': '70900',
               'restarts': '1',
               'solver.msecs': 37,
               'task.output': "Reading from standard input... Use '--help' for "
                              'help.\n'
                              '============================[ Problem '
                              'Statistics ]=============================\n'
                              '|                                                                             '
                              '|\n'
                              '|  Number of variables:         '
                              '69608                                         '
                              '|\n'
                              '|  Number of clauses:          '
                              '118081                                         '
                              '|\n'
                              '|  Parse time:                   0.03 '
                              's                                       |\n'
                              '|                                                                             '
                              '|\n'
                              '============================[ Search Statistics '
                              ']==============================\n'
                              '| Conflicts |          ORIGINAL         '
                              '|          LEARNT          | Progress |\n'
                              '|           |    Vars  Clauses Literals |    '
                              'Limit  Clauses Lit/Cl |          |\n'
                              '===============================================================================\n'
                              '===============================================================================\n'
                              'restarts              : 1\n'
                              'conflicts             : 1              (26 '
                              '/sec)\n'
                              'decisions             : 35139          (0.00 % '
                              'random) (926564 /sec)\n'
                              'propagations          : 70900          (1869529 '
                              '/sec)\n'
                              'conflict literals     : 2              (0.00 % '
                              'deleted)\n'
                              'Memory used           : 17.74 MB\n'
                              'CPU time              : 0.037924 s\n'
                              '\n'
                              'SATISFIABLE\n'},
 'task.msecs': 4592}
