proyfinal/src/viki/013/andrea/andrea-localstore/experimentInOfficeAgust.take6/worker_4/8a358382-7bb5-4d74-aafb-f71980b3eb47.als.cnf.out
Reading from standard input... Use '--help' for help.
============================[ Problem Statistics ]=============================
|                                                                             |
|  Number of variables:         87638                                         |
|  Number of clauses:          161767                                         |
|  Parse time:                   0.04 s                                       |
|                                                                             |
============================[ Search Statistics ]==============================
| Conflicts |          ORIGINAL         |          LEARNT          | Progress |
|           |    Vars  Clauses Literals |    Limit  Clauses Lit/Cl |          |
===============================================================================
|       100 |   63799   110266   275628 |    40430      100     29 | 27.202 % |
|       250 |   63799   110266   275628 |    44473      250     33 | 27.202 % |
|       475 |   63799   110266   275628 |    48921      475     42 | 27.202 % |
|       812 |   63799   110266   275628 |    53813      812     47 | 27.202 % |
|      1318 |   63798   110222   275538 |    59194     1316     54 | 27.203 % |
|      2077 |   63798   110222   275538 |    65114     2075     74 | 27.203 % |
|      3216 |   63798   110222   275538 |    71625     3214     78 | 27.203 % |
|      4924 |   63698   109816   274589 |    78788     4917     81 | 27.317 % |
|      7486 |   63662   109672   274233 |    86667     7383     96 | 27.358 % |
|     11330 |   49994    68649   173168 |    95333    10959     99 | 42.954 % |
|     17096 |   49798    67916   171438 |   104867    16668     84 | 43.178 % |
===============================================================================
restarts              : 63
conflicts             : 18832          (6153 /sec)
decisions             : 62359          (0.00 % random) (20375 /sec)
propagations          : 28782646       (9404406 /sec)
conflict literals     : 1486381        (48.04 % deleted)
Memory used           : 35.97 MB
CPU time              : 3.06055 s

UNSATISFIABLE
